
******************************************************************************
This program contains Ipopt, a library for large-scale nonlinear optimization.
 Ipopt is released as open source code under the Eclipse Public License (EPL).
         For more information visit https://github.com/coin-or/Ipopt
******************************************************************************

This is Ipopt version 3.14.16, running with linear solver MUMPS 5.7.3.

Number of nonzeros in equality constraint Jacobian...:        0
Number of nonzeros in inequality constraint Jacobian.:     1225
Number of nonzeros in Lagrangian Hessian.............:        0

Total number of variables............................:       35
                     variables with only lower bounds:       35
                variables with lower and upper bounds:        0
                     variables with only upper bounds:        0
Total number of equality constraints.................:        0
Total number of inequality constraints...............:       35
        inequality constraints with only lower bounds:       35
   inequality constraints with lower and upper bounds:        0
        inequality constraints with only upper bounds:        0

iter    objective    inf_pr   inf_du lg(mu)  ||d||  lg(rg) alpha_du alpha_pr  ls
   0  5.7707339e-04 1.49e+00 1.71e+00   0.0 0.00e+00    -  0.00e+00 0.00e+00   0
   1  6.8151548e-04 1.47e+00 8.77e+00  -1.3 7.08e-01    -  1.86e-01 2.38e-02h  1
   2  8.0846583e-04 1.44e+00 6.12e+00  -0.4 2.68e+00    -  2.01e-01 2.28e-02f  1
   3  8.2298315e-04 1.44e+00 5.77e+00  -2.6 8.84e-01    -  1.57e-01 2.83e-03h  1
   4  2.3355557e-02 2.93e-01 6.21e+00  -0.9 1.70e+00    -  4.63e-01 1.00e+00f  1
   5  2.3622701e-02 2.84e-01 6.68e+00  -1.8 2.24e-01    -  9.71e-01 9.79e-02h  1
   6  3.2093414e-02 2.68e-02 6.10e-01  -1.7 2.05e-01    -  1.00e+00 1.00e+00f  1
   7  3.3449736e-02 0.00e+00 1.14e-02  -2.7 5.28e-02    -  9.96e-01 1.00e+00h  1
   8  3.1118516e-02 1.05e-02 1.11e-02  -4.1 1.74e-01    -  1.00e+00 1.00e+00h  1
   9  2.9436005e-02 0.00e+00 7.99e-03  -4.5 6.99e-01    -  1.00e+00 5.32e-01h  1
iter    objective    inf_pr   inf_du lg(mu)  ||d||  lg(rg) alpha_du alpha_pr  ls
  10  2.9195716e-02 0.00e+00 5.04e-03  -4.0 1.60e-01    -  1.00e+00 1.00e+00h  1
  11  2.8731693e-02 3.13e-04 1.65e-03  -4.7 1.04e-01    -  1.00e+00 9.12e-01h  1
  12  2.8543463e-02 1.07e-04 1.05e-03  -5.0 8.35e-02    -  9.99e-01 1.00e+00h  1
  13  2.8479410e-02 4.97e-04 1.16e-03  -5.1 7.68e-02    -  1.00e+00 1.00e+00h  1
  14  2.8282842e-02 5.96e-03 1.02e-03  -4.8 1.00e-01    -  1.00e+00 7.87e-01h  1
  15  2.8205205e-02 5.56e-03 8.06e-04  -5.1 9.17e-02    -  1.00e+00 1.00e+00h  1
  16  2.8192990e-02 4.71e-03 9.94e-04  -5.5 4.71e-02    -  1.00e+00 1.00e+00h  1
  17  2.8114332e-02 6.26e-03 7.83e-04  -5.7 4.96e-02    -  1.00e+00 1.00e+00h  1
  18  2.8191790e-02 4.24e-03 5.01e-04  -5.4 3.58e-02    -  1.00e+00 1.00e+00h  1
  19  2.8295937e-02 0.00e+00 1.09e-04  -6.0 1.76e-02    -  1.00e+00 1.00e+00h  1
iter    objective    inf_pr   inf_du lg(mu)  ||d||  lg(rg) alpha_du alpha_pr  ls
  20  2.8268860e-02 4.13e-04 1.24e-04  -6.4 1.19e-02    -  1.00e+00 1.00e+00h  1
  21  2.8271356e-02 1.76e-04 1.21e-04  -6.8 9.07e-03    -  1.00e+00 1.00e+00h  1
  22  2.8249318e-02 9.60e-04 4.41e-04  -7.0 2.60e-02    -  1.00e+00 1.00e+00h  1
  23  2.8253986e-02 6.41e-04 3.45e-05  -7.1 1.79e-02    -  1.00e+00 1.00e+00h  1
  24  2.8272633e-02 3.19e-05 6.12e-05  -8.3 3.85e-03    -  1.00e+00 1.00e+00h  1
  25  2.8273940e-02 0.00e+00 2.39e-05  -8.8 2.66e-03    -  1.00e+00 1.00e+00h  1
  26  2.8253015e-02 7.76e-04 2.10e-04  -9.4 1.92e-02    -  1.00e+00 1.00e+00h  1
  27  2.8253541e-02 6.09e-04 1.08e-04  -9.4 1.40e-02    -  1.00e+00 1.00e+00h  1
  28  2.8274548e-02 4.74e-05 5.41e-04 -10.0 1.23e-02    -  1.00e+00 1.00e+00h  1
  29  2.8271360e-02 6.04e-05 5.46e-05 -10.1 1.14e-02    -  1.00e+00 1.00e+00h  1
iter    objective    inf_pr   inf_du lg(mu)  ||d||  lg(rg) alpha_du alpha_pr  ls
  30  2.8271700e-02 4.56e-05 1.89e-05 -11.0 4.27e-03    -  1.00e+00 1.00e+00h  1
  31  2.8269411e-02 1.29e-04 6.33e-05 -11.0 4.62e-03    -  1.00e+00 1.00e+00h  1
  32  2.8271662e-02 4.60e-05 1.29e-05 -11.0 3.86e-03    -  1.00e+00 1.00e+00h  1
  33  2.8271956e-02 4.24e-05 7.42e-05 -11.0 3.41e-03    -  1.00e+00 1.00e+00h  1
  34  2.8272169e-02 3.02e-05 3.01e-06 -11.0 2.90e-03    -  1.00e+00 1.00e+00h  1
  35  2.8273129e-02 8.54e-07 2.02e-05 -11.0 2.49e-04    -  1.00e+00 1.00e+00h  1
  36  2.8273098e-02 1.76e-06 7.38e-06 -11.0 3.07e-04    -  1.00e+00 1.00e+00h  1
  37  2.8273114e-02 1.25e-06 7.58e-06 -11.0 5.90e-04    -  1.00e+00 1.00e+00h  1
  38  2.8273142e-02 3.15e-07 1.29e-06 -11.0 2.61e-04    -  1.00e+00 1.00e+00h  1
  39  2.8273152e-02 1.09e-08 1.29e-06 -11.0 1.12e-04    -  1.00e+00 1.00e+00h  1
iter    objective    inf_pr   inf_du lg(mu)  ||d||  lg(rg) alpha_du alpha_pr  ls
  40  2.8272891e-02 8.32e-06 2.33e-05 -11.0 1.65e-03    -  1.00e+00 1.00e+00h  1
  41  2.8273031e-02 3.91e-06 3.70e-05 -11.0 1.16e-03    -  1.00e+00 1.00e+00h  1
  42  2.8272832e-02 9.93e-06 2.09e-05 -11.0 1.68e-03    -  1.00e+00 1.00e+00h  1
  43  2.8272856e-02 9.93e-06 5.02e-05 -11.0 2.09e-03    -  1.00e+00 1.00e+00h  1
  44  2.8272438e-02 2.29e-05 3.20e-05 -11.0 3.16e-03    -  1.00e+00 1.00e+00h  1
  45  2.8268985e-02 1.46e-04 1.50e-04 -11.0 6.78e-03    -  1.00e+00 1.00e+00h  1
  46  2.8271263e-02 5.78e-05 1.05e-05 -11.0 5.85e-03    -  1.00e+00 1.00e+00h  1
  47  2.8273147e-02 8.09e-08 2.13e-06 -11.0 1.33e-04    -  1.00e+00 1.00e+00h  1
  48  2.8273063e-02 2.68e-06 5.57e-06 -11.0 4.38e-04    -  1.00e+00 1.00e+00h  1
  49  2.8273034e-02 4.03e-06 3.93e-05 -11.0 6.99e-04    -  1.00e+00 1.00e+00h  1
iter    objective    inf_pr   inf_du lg(mu)  ||d||  lg(rg) alpha_du alpha_pr  ls
  50  2.8273066e-02 2.56e-06 5.27e-06 -11.0 6.82e-04    -  1.00e+00 1.00e+00h  1
  51  2.8273132e-02 5.63e-07 2.76e-06 -11.0 4.71e-04    -  1.00e+00 1.00e+00h  1
  52  2.8273142e-02 2.14e-07 1.00e-06 -11.0 2.96e-04    -  1.00e+00 1.00e+00h  1

Number of Iterations....: 52

                                   (scaled)                 (unscaled)
Objective...............:   2.8273141687818758e-02    2.8273141687818758e-02
Dual infeasibility......:   9.9995320999239476e-07    9.9995320999239476e-07
Constraint violation....:   2.1438397412865129e-07    2.1438397412865129e-07
Variable bound violation:   0.0000000000000000e+00    0.0000000000000000e+00
Complementarity.........:   1.0000002583196951e-11    1.0000002583196951e-11
Overall NLP error.......:   9.9995320999239476e-07    9.9995320999239476e-07


Number of objective function evaluations             = 53
Number of objective gradient evaluations             = 53
Number of equality constraint evaluations            = 0
Number of inequality constraint evaluations          = 53
Number of equality constraint Jacobian evaluations   = 0
Number of inequality constraint Jacobian evaluations = 53
Number of Lagrangian Hessian evaluations             = 0
Total seconds in IPOPT                               = 105.805

EXIT: Optimal Solution Found.
